p tw 840 1714
1 348
1 349
1 482
1 483
1 630
1 631
1 734
1 735
2 750
2 751
3 513
3 514
3 766
3 767
4 299
4 300
4 514
4 515
5 752
5 753
6 809
6 810
7 90
7 375
7 376
7 531
7 532
7 574
7 637
7 638
8 275
8 276
8 543
8 544
8 588
8 589
8 649
8 650
9 520
9 521
10 675
10 676
11 822
11 823
12 362
12 363
12 452
12 453
12 589
12 590
12 661
12 662
13 702
13 703
13 757
13 758
14 718
14 719
14 776
14 777
15 385
15 386
15 784
15 785
16 276
16 277
16 453
16 454
16 590
16 591
16 662
16 663
17 277
17 278
18 409
18 410
19 772
19 773
19 828
19 829
20 328
20 329
20 461
20 462
20 601
20 602
20 714
20 715
21 291
21 292
21 540
21 541
21 646
21 647
22 502
22 503
22 559
22 560
23 369
23 370
24 377
24 378
24 774
24 775
25 298
25 299
25 686
25 687
25 802
25 803
25 835
25 836
26 273
26 274
27 521
27 522
28 427
28 428
29 296
29 297
29 685
29 686
30 509
30 510
30 565
30 566
30 760
30 761
31 338
31 339
31 572
31 573
31 618
31 619
32 297
32 298
33 322
33 323
34 792
34 793
35 743
35 744
36 430
36 431
37 501
37 502
37 558
37 559
38 762
38 763
39 344
39 345
40 402
40 403
41 759
41 760
42 782
42 783
43 438
43 439
43 728
43 729
44 504
44 505
44 560
44 561
44 791
44 792
45 279
45 280
46 745
46 746
47 341
47 342
47 530
47 531
47 622
47 623
47 636
47 637
48 437
48 438
49 394
49 395
49 797
49 798
50 787
50 788
51 280
51 281
52 274
52 275
52 451
52 452
52 587
52 588
52 660
52 661
53 281
53 282
54 410
54 411
55 81
55 103
55 349
55 350
55 807
55 840
56 373
56 374
56 771
56 772
57 376
57 377
57 529
57 530
57 635
57 636
58 799
58 800
59 270
59 271
59 653
59 654
60 382
60 383
60 466
60 467
60 606
60 607
60 677
60 678
61 383
61 384
62 345
62 346
63 122
63 769
63 770
63 823
64 360
64 361
64 748
64 749
65 758
65 759
66 665
66 666
67 442
67 443
68 327
68 328
69 79
69 371
69 372
69 544
69 650
70 401
70 402
71 386
71 387
71 610
71 611
72 515
72 516
72 569
72 570
73 396
73 397
74 719
74 720
74 777
74 778
75 778
75 779
76 418
76 419
76 709
76 710
77 311
77 312
78 230
78 389
78 390
78 525
78 615
78 616
79 388
79 389
79 503
79 504
79 544
79 650
80 282
80 283
81 790
81 791
81 840
82 397
82 398
83 363
83 364
83 508
83 509
83 564
83 565
84 411
84 412
84 539
84 540
84 586
84 587
84 645
84 646
85 441
85 442
86 435
86 436
87 334
87 335
87 468
87 469
87 609
87 610
87 722
87 723
88 518
88 519
89 767
89 768
89 839
89 840
90 258
90 415
90 416
90 574
90 651
91 368
91 369
91 538
91 539
91 643
91 644
91 667
91 668
92 747
92 748
93 319
93 320
93 455
93 456
93 593
93 594
93 703
93 704
94 413
94 414
94 751
94 752
95 295
95 296
95 476
95 477
95 532
95 533
95 623
95 624
95 638
95 639
95 684
95 685
96 355
96 356
97 486
97 487
97 547
97 548
98 488
98 489
99 788
99 789
100 408
100 409
100 489
100 490
100 548
100 549
100 695
100 696
100 740
100 741
101 405
101 406
101 516
101 517
101 570
101 571
101 689
101 690
101 804
101 805
102 497
102 498
102 555
102 556
102 786
102 787
103 129
103 203
103 266
103 350
103 351
103 483
103 522
103 571
103 632
103 735
103 736
103 807
104 399
104 400
104 512
104 513
104 568
104 569
104 687
104 688
104 803
104 804
105 395
105 396
105 475
105 476
105 624
105 625
105 683
105 684
106 811
106 812
107 431
107 432
107 785
107 786
108 496
108 497
108 554
108 555
109 810
109 811
110 500
110 501
110 557
110 558
110 789
110 790
111 414
111 415
111 705
111 706
112 816
112 817
113 768
113 769
114 306
114 307
115 439
115 440
115 511
115 512
115 567
115 568
115 625
115 626
115 800
115 801
115 830
115 831
116 357
116 358
116 447
116 448
116 533
116 534
116 579
116 580
116 639
116 640
116 657
116 658
117 285
117 286
117 542
117 543
117 598
117 599
117 648
117 649
118 326
118 327
119 836
119 837
120 367
120 368
121 358
121 359
121 449
121 450
121 581
121 582
121 659
121 660
121 815
121 816
122 823
123 679
123 680
124 428
124 429
125 332
125 333
126 819
126 820
127 312
127 313
127 535
127 536
127 641
127 642
128 730
128 731
129 200
129 352
129 353
129 483
129 632
129 736
130 321
130 322
131 303
131 304
132 351
132 352
133 429
133 430
134 392
134 393
134 507
134 508
134 561
134 562
134 617
134 618
134 796
134 797
134 827
134 828
135 384
135 385
136 519
136 520
136 805
136 806
137 749
137 750
138 494
138 495
138 552
138 553
139 283
139 284
139 458
139 459
139 595
139 596
139 666
139 667
140 372
140 373
141 808
141 809
142 407
142 408
142 694
142 695
142 812
142 813
143 314
143 315
143 699
143 700
144 421
144 422
144 596
144 597
144 710
144 711
145 286
145 287
145 671
145 672
146 315
146 316
146 584
146 585
147 269
147 270
147 444
147 445
147 575
147 576
147 652
147 653
148 432
148 433
149 391
149 392
149 795
149 796
149 824
149 825
150 318
150 319
150 701
150 702
151 510
151 511
151 566
151 567
152 302
152 303
152 479
152 480
152 628
152 629
152 690
152 691
153 313
153 314
153 450
153 451
153 583
153 584
153 698
153 699
154 670
154 671
154 775
154 776
155 818
155 819
156 485
156 486
156 546
156 547
157 387
157 388
157 470
157 471
157 612
157 613
157 680
157 681
158 708
158 709
159 793
159 794
160 359
160 360
161 272
161 273
161 446
161 447
161 578
161 579
161 655
161 656
162 656
162 657
162 741
162 742
163 361
163 362
164 287
164 288
164 465
164 466
164 605
164 606
164 673
164 674
165 753
165 754
166 720
166 721
167 763
167 764
167 838
167 839
168 335
168 336
168 537
168 538
168 608
168 609
168 644
168 645
169 323
169 324
170 271
170 272
170 445
170 446
170 577
170 578
170 654
170 655
171 506
171 507
171 562
171 563
171 756
171 757
171 826
171 827
172 290
172 291
172 467
172 468
172 607
172 608
172 678
172 679
173 347
173 348
173 480
173 481
173 629
173 630
173 732
173 733
174 490
174 491
175 433
175 434
176 739
176 740
177 316
177 317
177 700
177 701
178 505
178 506
178 563
178 564
178 755
178 756
179 353
179 354
180 746
180 747
181 343
181 344
181 477
181 478
181 626
181 627
181 729
181 730
182 378
182 379
182 672
182 673
183 374
183 375
183 463
183 464
183 528
183 529
183 603
183 604
183 634
183 635
183 669
183 670
184 292
184 293
184 472
184 473
184 613
184 614
184 681
184 682
185 294
185 295
185 619
185 620
186 692
186 693
187 422
187 423
187 459
187 460
187 599
187 600
187 712
187 713
188 370
188 371
189 403
189 404
190 765
190 766
191 801
191 802
191 832
191 833
192 325
192 326
193 744
193 745
193 837
193 838
194 309
194 310
195 317
195 318
195 754
195 755
195 825
195 826
196 330
196 331
197 400
197 401
197 478
197 479
197 524
197 525
197 627
197 628
197 688
197 689
198 716
198 717
199 333
199 334
199 493
199 494
199 551
199 552
199 721
199 722
199 781
199 782
200 207
200 443
200 736
201 426
201 427
202 364
202 365
202 454
202 455
202 591
202 592
202 663
202 664
203 522
204 300
204 301
205 499
205 500
206 307
206 308
206 693
206 694
207 443
207 481
207 482
207 631
207 632
207 733
207 734
208 278
208 279
208 456
208 457
208 592
208 593
208 664
208 665
209 340
209 341
209 798
209 799
209 829
209 830
210 354
210 355
210 576
210 577
210 737
210 738
211 813
211 814
212 806
212 807
213 379
213 380
213 492
213 493
213 550
213 551
213 779
213 780
214 814
214 815
215 288
215 289
216 498
216 499
216 556
216 557
217 366
217 367
218 794
218 795
219 320
219 321
219 704
219 705
220 380
220 381
221 423
221 424
221 460
221 461
221 600
221 601
221 713
221 714
222 305
222 306
223 416
223 417
223 457
223 458
223 594
223 595
223 706
223 707
224 406
224 407
225 658
225 659
226 304
226 305
226 691
226 692
227 817
227 818
228 425
228 426
228 464
228 465
228 604
228 605
228 717
228 718
229 674
229 675
230 412
230 413
230 525
230 585
230 586
231 337
231 338
231 526
231 527
231 616
231 617
232 419
232 420
233 331
233 332
233 773
233 774
234 308
234 309
234 448
234 449
234 580
234 581
234 697
234 698
235 404
235 405
235 536
235 537
235 642
235 643
236 440
236 441
237 725
237 726
238 329
238 330
238 484
238 485
238 545
238 546
238 770
238 771
239 696
239 697
240 417
240 418
240 761
240 762
240 833
240 834
241 390
241 391
242 293
242 294
243 365
243 366
244 420
244 421
244 597
244 598
244 820
244 821
245 424
245 425
245 462
245 463
245 602
245 603
245 715
245 716
246 342
246 343
247 393
247 394
247 473
247 474
247 620
247 621
247 682
247 683
248 346
248 347
248 731
248 732
249 356
249 357
250 764
250 765
251 434
251 435
251 471
251 472
251 614
251 615
251 724
251 725
252 711
252 712
253 381
253 382
254 336
254 337
254 469
254 470
254 541
254 542
254 611
254 612
254 647
254 648
254 723
254 724
255 339
255 340
256 491
256 492
256 549
256 550
256 742
256 743
256 831
256 832
257 324
257 325
257 707
257 708
258 310
258 311
258 534
258 535
258 573
258 574
258 582
258 583
258 640
258 641
258 651
259 289
259 290
259 495
259 496
259 553
259 554
259 676
259 677
259 783
259 784
260 398
260 399
261 738
261 739
262 527
262 528
262 633
262 634
263 284
263 285
263 668
263 669
264 436
264 437
264 474
264 475
264 523
264 524
264 621
264 622
264 726
264 727
265 487
265 488
266 301
266 302
266 517
266 518
266 571
266 821
266 822
267 780
267 781
267 834
267 835
268 727
268 728
269 270
270 271
271 272
272 273
273 274
274 275
275 276
276 277
277 278
278 279
279 280
280 281
281 282
282 283
283 284
284 285
285 286
286 287
287 288
288 289
289 290
290 291
291 292
292 293
293 294
294 295
295 296
296 297
297 298
298 299
299 300
300 301
301 302
302 303
303 304
304 305
305 306
306 307
307 308
308 309
309 310
310 311
311 312
312 313
313 314
314 315
315 316
316 317
317 318
318 319
319 320
320 321
321 322
322 323
323 324
324 325
325 326
326 327
327 328
328 329
329 330
330 331
331 332
332 333
333 334
334 335
335 336
336 337
337 338
338 339
339 340
340 341
341 342
342 343
343 344
344 345
345 346
346 347
347 348
348 349
349 350
350 351
351 352
352 353
353 354
354 355
355 356
356 357
357 358
358 359
359 360
360 361
361 362
362 363
363 364
364 365
365 366
366 367
367 368
368 369
369 370
370 371
371 372
372 373
373 374
374 375
375 376
376 377
377 378
378 379
379 380
380 381
381 382
382 383
383 384
384 385
385 386
386 387
387 388
388 389
389 390
390 391
391 392
392 393
393 394
394 395
395 396
396 397
397 398
398 399
399 400
400 401
401 402
402 403
403 404
404 405
405 406
406 407
407 408
408 409
409 410
410 411
411 412
412 413
413 414
414 415
415 416
416 417
417 418
418 419
419 420
420 421
421 422
422 423
423 424
424 425
425 426
426 427
427 428
428 429
429 430
430 431
431 432
432 433
433 434
434 435
435 436
436 437
437 438
438 439
439 440
440 441
441 442
442 443
444 445
445 446
446 447
447 448
448 449
449 450
450 451
451 452
452 453
453 454
454 455
455 456
456 457
457 458
458 459
459 460
460 461
461 462
462 463
463 464
464 465
465 466
466 467
467 468
468 469
469 470
470 471
471 472
472 473
473 474
474 475
475 476
476 477
477 478
478 479
479 480
480 481
481 482
482 483
484 485
485 486
486 487
487 488
488 489
489 490
490 491
491 492
492 493
493 494
494 495
495 496
496 497
497 498
498 499
499 500
500 501
501 502
502 503
503 504
504 505
505 506
506 507
507 508
508 509
509 510
510 511
511 512
512 513
513 514
514 515
515 516
516 517
517 518
518 519
519 520
520 521
521 522
523 524
524 525
526 527
527 528
528 529
529 530
530 531
531 532
532 533
533 534
534 535
535 536
536 537
537 538
538 539
539 540
540 541
541 542
542 543
543 544
545 546
546 547
547 548
548 549
549 550
550 551
551 552
552 553
553 554
554 555
555 556
556 557
557 558
558 559
559 560
560 561
561 562
562 563
563 564
564 565
565 566
566 567
567 568
568 569
569 570
570 571
572 573
573 574
575 576
576 577
577 578
578 579
579 580
580 581
581 582
582 583
583 584
584 585
585 586
586 587
587 588
588 589
589 590
590 591
591 592
592 593
593 594
594 595
595 596
596 597
597 598
598 599
599 600
600 601
601 602
602 603
603 604
604 605
605 606
606 607
607 608
608 609
609 610
610 611
611 612
612 613
613 614
614 615
615 616
616 617
617 618
618 619
619 620
620 621
621 622
622 623
623 624
624 625
625 626
626 627
627 628
628 629
629 630
630 631
631 632
633 634
634 635
635 636
636 637
637 638
638 639
639 640
640 641
641 642
642 643
643 644
644 645
645 646
646 647
647 648
648 649
649 650
652 653
653 654
654 655
655 656
656 657
657 658
658 659
659 660
660 661
661 662
662 663
663 664
664 665
665 666
666 667
667 668
668 669
669 670
670 671
671 672
672 673
673 674
674 675
675 676
676 677
677 678
678 679
679 680
680 681
681 682
682 683
683 684
684 685
685 686
686 687
687 688
688 689
689 690
690 691
691 692
692 693
693 694
694 695
695 696
696 697
697 698
698 699
699 700
700 701
701 702
702 703
703 704
704 705
705 706
706 707
707 708
708 709
709 710
710 711
711 712
712 713
713 714
714 715
715 716
716 717
717 718
718 719
719 720
720 721
721 722
722 723
723 724
724 725
725 726
726 727
727 728
728 729
729 730
730 731
731 732
732 733
733 734
734 735
735 736
737 738
738 739
739 740
740 741
741 742
742 743
743 744
744 745
745 746
746 747
747 748
748 749
749 750
750 751
751 752
752 753
753 754
754 755
755 756
756 757
757 758
758 759
759 760
760 761
761 762
762 763
763 764
764 765
765 766
766 767
767 768
768 769
769 770
770 771
771 772
772 773
773 774
774 775
775 776
776 777
777 778
778 779
779 780
780 781
781 782
782 783
783 784
784 785
785 786
786 787
787 788
788 789
789 790
790 791
791 792
792 793
793 794
794 795
795 796
796 797
797 798
798 799
799 800
800 801
801 802
802 803
803 804
804 805
805 806
806 807
808 809
809 810
810 811
811 812
812 813
813 814
814 815
815 816
816 817
817 818
818 819
819 820
820 821
821 822
822 823
824 825
825 826
826 827
827 828
828 829
829 830
830 831
831 832
832 833
833 834
834 835
835 836
836 837
837 838
838 839
839 840
